(set-info :source |printed by MathSAT|)
(declare-fun |.x{264}| () Int)
(declare-fun |.y{17}| () Int)
(declare-fun |.x{267}| () Int)
(declare-fun |.y{18}| () Int)
(declare-fun |.x{268}| () (Array Int Int))
(declare-fun |.y{19}| () (Array Int Int))
(declare-fun |.x{272}| () Int)
(declare-fun |.y{20}| () Int)
(declare-fun |.y{14}| () (Array Int Int))
(declare-fun |.y{21}| () (Array Int Int))
(declare-fun |.x{276}| () Int)
(declare-fun |.y{22}| () Int)
(declare-fun |.x{277}| () (Array Int Int))
(declare-fun |.y{23}| () (Array Int Int))
(declare-fun |.y{15}| () Int)
(declare-fun |.y{24}| () Int)
(declare-fun |.x{265}| () (Array Int Int))
(declare-fun |.y{25}| () (Array Int Int))
(declare-fun |.y{16}| () Int)
(declare-fun |.y{26}| () Int)
(declare-fun |.x{273}| () (Array Int Int))
(declare-fun |.y{27}| () (Array Int Int))
(declare-fun |.x{275}| () Int)
(declare-fun |.y{28}| () Int)
(declare-fun |.x{261}| () Int)
(declare-fun |.y{29}| () Int)
(declare-fun |.loc{4}| () Bool)
(declare-fun |.loc{7}| () Bool)
(declare-fun |.loc{5}| () Bool)
(declare-fun |.loc{8}| () Bool)
(declare-fun |.loc{6}| () Bool)
(declare-fun |.loc{9}| () Bool)
(declare-fun |.x{278}| () Int)
(declare-fun |.x{274}| () Int)
(declare-fun |.x{271}| () Int)
(declare-fun |.x{270}| () Int)
(declare-fun |.x{269}| () Int)
(declare-fun |.x{266}| () Int)
(declare-fun |.x{281}| () Bool)
(declare-fun |.x{279}| () Int)
(declare-fun |.x{280}| () Int)
(declare-fun |.x{284}| () Bool)
(declare-fun |.x{283}| () Bool)
(declare-fun |.x{282}| () Bool)
(declare-fun |.x{285}| () Bool)
(declare-fun |.x{286}| () Bool)
(declare-fun |.x{263}| () Bool)
(define-fun .def_34 () Bool (! |.loc{4}| :next |.loc{7}|))
(define-fun .def_134 () Bool (not .def_34))
(define-fun .def_36 () Bool (! |.loc{5}| :next |.loc{8}|))
(define-fun .def_96 () Bool (not .def_36))
(define-fun .def_465 () Bool (and .def_96 .def_134))
(define-fun .def_38 () Bool (! |.loc{6}| :next |.loc{9}|))
(define-fun .def_124 () Bool (not .def_38))
(define-fun .def_466 () Bool (! (and .def_124 .def_465) :init true))
(define-fun .def_449 () Bool (and |.x{281}| |.x{284}|))
(define-fun .def_452 () Bool (not .def_449))
(define-fun .def_453 () Bool (or |.x{286}| .def_452))
(define-fun .def_354 () Bool (not |.x{281}|))
(define-fun .def_450 () Bool (or .def_354 .def_449))
(define-fun .def_445 () Bool (= |.x{271}| |.x{270}|))
(define-fun .def_446 () Bool (= |.x{286}| .def_445))
(define-fun .def_377 () Bool (not |.x{284}|))
(define-fun .def_447 () Bool (or .def_377 .def_446))
(define-fun .def_12 () (Array Int Int) (! |.x{268}| :next |.y{19}|))
(define-fun .def_334 () Int (select .def_12 |.x{269}|))
(define-fun .def_442 () Bool (= |.x{271}| .def_334))
(define-fun .def_443 () Bool (or .def_377 .def_442))
(define-fun .def_10 () Int (! |.x{267}| :next |.y{18}|))
(define-fun .def_328 () Bool (<= .def_10 0))
(define-fun .def_331 () Bool (not .def_328))
(define-fun .def_440 () Bool (or .def_331 .def_377))
(define-fun .def_126 () Bool (<= |.x{269}| 0))
(define-fun .def_127 () Bool (not .def_126))
(define-fun .def_329 () Bool (or .def_127 .def_328))
(define-fun .def_437 () Bool (or .def_329 .def_377))
(define-fun .def_24 () (Array Int Int) (! |.x{265}| :next |.y{25}|))
(define-fun .def_196 () Int (select .def_24 |.x{266}|))
(define-fun .def_433 () Bool (= |.x{270}| .def_196))
(define-fun .def_434 () Bool (or .def_377 .def_433))
(define-fun .def_8 () Int (! |.x{264}| :next |.y{17}|))
(define-fun .def_110 () Bool (<= .def_8 0))
(define-fun .def_115 () Bool (not .def_110))
(define-fun .def_431 () Bool (or .def_115 .def_377))
(define-fun .def_108 () Bool (<= |.x{266}| 0))
(define-fun .def_109 () Bool (not .def_108))
(define-fun .def_111 () Bool (or .def_109 .def_110))
(define-fun .def_429 () Bool (or .def_111 .def_377))
(define-fun .def_426 () Bool (and |.x{284}| |.x{263}|))
(define-fun .def_427 () Bool (or .def_377 .def_426))
(define-fun .def_414 () Int (* (- 1) |.x{278}|))
(define-fun .def_30 () Int (! |.x{275}| :next |.y{28}|))
(define-fun .def_417 () Int (+ .def_30 .def_414))
(define-fun .def_18 () Int (! |.x{276}| :next |.y{22}|))
(define-fun .def_418 () Int (+ .def_18 .def_417))
(define-fun .def_419 () Bool (= .def_418 0))
(define-fun .def_420 () Bool (or .def_354 .def_419))
(define-fun .def_410 () Bool (not |.x{286}|))
(define-fun .def_395 () Bool (and |.x{284}| |.x{285}|))
(define-fun .def_408 () Bool (not .def_395))
(define-fun .def_411 () Bool (or .def_408 .def_410))
(define-fun .def_405 () Bool (not |.x{283}|))
(define-fun .def_396 () Bool (and |.x{281}| |.x{282}|))
(define-fun .def_404 () Bool (not .def_396))
(define-fun .def_406 () Bool (or .def_404 .def_405))
(define-fun .def_98 () Int (* (- 1) |.x{274}|))
(define-fun .def_399 () Int (+ .def_30 .def_98))
(define-fun .def_14 () Int (! |.x{272}| :next |.y{20}|))
(define-fun .def_400 () Int (+ .def_14 .def_399))
(define-fun .def_401 () Bool (= .def_400 0))
(define-fun .def_402 () Bool (or .def_354 .def_401))
(define-fun .def_397 () Bool (or .def_395 .def_396))
(define-fun .def_81 () Int (* (- 1) |.x{269}|))
(define-fun .def_298 () Int (+ .def_30 .def_81))
(define-fun .def_299 () Int (+ .def_10 .def_298))
(define-fun .def_300 () Bool (= .def_299 0))
(define-fun .def_393 () Bool (or .def_300 .def_377))
(define-fun .def_390 () Bool (not |.x{285}|))
(define-fun .def_391 () Bool (or |.x{284}| .def_390))
(define-fun .def_386 () Bool (not |.x{282}|))
(define-fun .def_387 () Bool (or |.x{281}| .def_386))
(define-fun .def_380 () Bool (= |.x{279}| |.x{280}|))
(define-fun .def_382 () Bool (= .def_380 |.x{283}|))
(define-fun .def_383 () Bool (or .def_354 .def_382))
(define-fun .def_76 () Int (* (- 1) |.x{266}|))
(define-fun .def_285 () Int (+ .def_30 .def_76))
(define-fun .def_286 () Int (+ .def_8 .def_285))
(define-fun .def_287 () Bool (= .def_286 0))
(define-fun .def_378 () Bool (or .def_287 .def_377))
(define-fun .def_20 () (Array Int Int) (! |.x{277}| :next |.y{23}|))
(define-fun .def_371 () Int (select .def_20 |.x{278}|))
(define-fun .def_373 () Bool (= .def_371 |.x{280}|))
(define-fun .def_374 () Bool (or .def_354 .def_373))
(define-fun .def_72 () Bool (<= .def_18 0))
(define-fun .def_73 () Bool (not .def_72))
(define-fun .def_369 () Bool (or .def_73 .def_354))
(define-fun .def_364 () Bool (<= |.x{278}| 0))
(define-fun .def_365 () Bool (not .def_364))
(define-fun .def_366 () Bool (or .def_72 .def_365))
(define-fun .def_367 () Bool (or .def_354 .def_366))
(define-fun .def_28 () (Array Int Int) (! |.x{273}| :next |.y{27}|))
(define-fun .def_359 () Int (select .def_28 |.x{274}|))
(define-fun .def_361 () Bool (= .def_359 |.x{279}|))
(define-fun .def_362 () Bool (or .def_354 .def_361))
(define-fun .def_104 () Bool (<= |.x{274}| 0))
(define-fun .def_105 () Bool (not .def_104))
(define-fun .def_47 () Bool (<= .def_14 0))
(define-fun .def_356 () Bool (or .def_47 .def_105))
(define-fun .def_357 () Bool (or .def_354 .def_356))
(define-fun .def_48 () Bool (not .def_47))
(define-fun .def_355 () Bool (or .def_48 .def_354))
(define-fun .def_358 () Bool (and .def_355 .def_357))
(define-fun .def_363 () Bool (and .def_358 .def_362))
(define-fun .def_368 () Bool (and .def_363 .def_367))
(define-fun .def_370 () Bool (and .def_368 .def_369))
(define-fun .def_375 () Bool (and .def_370 .def_374))
(define-fun .def_379 () Bool (and .def_375 .def_378))
(define-fun .def_384 () Bool (and .def_379 .def_383))
(define-fun .def_388 () Bool (and .def_384 .def_387))
(define-fun .def_392 () Bool (and .def_388 .def_391))
(define-fun .def_394 () Bool (and .def_392 .def_393))
(define-fun .def_398 () Bool (and .def_394 .def_397))
(define-fun .def_403 () Bool (and .def_398 .def_402))
(define-fun .def_407 () Bool (and .def_403 .def_406))
(define-fun .def_412 () Bool (and .def_407 .def_411))
(define-fun .def_413 () Bool (and .def_38 .def_412))
(define-fun .def_421 () Bool (and .def_413 .def_420))
(define-fun .def_422 () Bool (and .def_134 .def_421))
(define-fun .def_423 () Bool (and .def_96 .def_422))
(define-fun .def_32 () Int (! |.x{261}| :next |.y{29}|))
(define-fun .def_321 () Bool (<= .def_32 .def_30))
(define-fun .def_322 () Bool (not .def_321))
(define-fun .def_424 () Bool (and .def_322 .def_423))
(define-fun .def_428 () Bool (and .def_424 .def_427))
(define-fun .def_430 () Bool (and .def_428 .def_429))
(define-fun .def_432 () Bool (and .def_430 .def_431))
(define-fun .def_435 () Bool (and .def_432 .def_434))
(define-fun .def_436 () Bool (and |.loc{7}| .def_435))
(define-fun .def_438 () Bool (and .def_436 .def_437))
(define-fun .def_439 () Bool (and .def_437 .def_438))
(define-fun .def_441 () Bool (and .def_439 .def_440))
(define-fun .def_444 () Bool (and .def_441 .def_443))
(define-fun .def_448 () Bool (and .def_444 .def_447))
(define-fun .def_451 () Bool (and .def_448 .def_450))
(define-fun .def_454 () Bool (and .def_451 .def_453))
(define-fun .def_347 () Bool (= |.y{28}| 0))
(define-fun .def_341 () Bool (= .def_30 |.y{29}|))
(define-fun .def_68 () Bool (= .def_18 |.y{22}|))
(define-fun .def_59 () Bool (= .def_14 |.y{20}|))
(define-fun .def_337 () Bool (and .def_59 .def_68))
(define-fun .def_174 () Bool (= .def_20 |.y{23}|))
(define-fun .def_338 () Bool (and .def_174 .def_337))
(define-fun .def_266 () Bool (= .def_24 |.y{25}|))
(define-fun .def_339 () Bool (and .def_266 .def_338))
(define-fun .def_269 () Bool (= .def_28 |.y{27}|))
(define-fun .def_340 () Bool (and .def_269 .def_339))
(define-fun .def_342 () Bool (and .def_340 .def_341))
(define-fun .def_343 () Bool (and .def_34 .def_342))
(define-fun .def_344 () Bool (and .def_36 .def_343))
(define-fun .def_212 () Bool (not |.loc{7}|))
(define-fun .def_345 () Bool (and .def_212 .def_344))
(define-fun .def_346 () Bool (and .def_124 .def_345))
(define-fun .def_348 () Bool (and .def_346 .def_347))
(define-fun .def_22 () Int (! |.y{15}| :next |.y{24}|))
(define-fun .def_205 () Bool (<= .def_30 .def_22))
(define-fun .def_349 () Bool (and .def_205 .def_348))
(define-fun .def_44 () Bool (= .def_8 |.y{17}|))
(define-fun .def_350 () Bool (and .def_44 .def_349))
(define-fun .def_162 () Bool (= .def_10 |.y{18}|))
(define-fun .def_351 () Bool (and .def_162 .def_350))
(define-fun .def_165 () Bool (= .def_12 |.y{19}|))
(define-fun .def_352 () Bool (and .def_165 .def_351))
(define-fun .def_455 () Bool (or .def_352 .def_454))
(define-fun .def_335 () Bool (= .def_196 .def_334))
(define-fun .def_326 () Bool (= .def_32 |.y{29}|))
(define-fun .def_317 () Int (* (- 1) |.y{28}|))
(define-fun .def_318 () Int (+ .def_30 .def_317))
(define-fun .def_319 () Bool (= .def_318 (- 1)))
(define-fun .def_312 () Int (select .def_20 |.x{271}|))
(define-fun .def_311 () Int (select .def_28 |.x{270}|))
(define-fun .def_313 () Bool (= .def_311 .def_312))
(define-fun .def_90 () Int (* (- 1) |.x{271}|))
(define-fun .def_305 () Int (+ .def_30 .def_90))
(define-fun .def_306 () Int (+ .def_18 .def_305))
(define-fun .def_307 () Bool (= .def_306 0))
(define-fun .def_167 () Bool (<= |.x{270}| 0))
(define-fun .def_168 () Bool (not .def_167))
(define-fun .def_296 () Bool (or .def_47 .def_168))
(define-fun .def_157 () Int (* (- 1) |.x{270}|))
(define-fun .def_292 () Int (+ .def_30 .def_157))
(define-fun .def_293 () Int (+ .def_14 .def_292))
(define-fun .def_294 () Bool (= .def_293 0))
(define-fun .def_161 () Bool (and .def_44 .def_48))
(define-fun .def_163 () Bool (and .def_161 .def_162))
(define-fun .def_278 () Bool (and .def_163 .def_165))
(define-fun .def_279 () Bool (and .def_59 .def_278))
(define-fun .def_280 () Bool (and .def_68 .def_279))
(define-fun .def_281 () Bool (and .def_174 .def_280))
(define-fun .def_282 () Bool (and .def_73 .def_281))
(define-fun .def_283 () Bool (and .def_266 .def_282))
(define-fun .def_284 () Bool (and .def_269 .def_283))
(define-fun .def_288 () Bool (and .def_284 .def_287))
(define-fun .def_295 () Bool (and .def_288 .def_294))
(define-fun .def_297 () Bool (and .def_295 .def_296))
(define-fun .def_301 () Bool (and .def_297 .def_300))
(define-fun .def_308 () Bool (and .def_301 .def_307))
(define-fun .def_86 () Bool (<= |.x{271}| 0))
(define-fun .def_87 () Bool (not .def_86))
(define-fun .def_88 () Bool (or .def_72 .def_87))
(define-fun .def_309 () Bool (and .def_88 .def_308))
(define-fun .def_310 () Bool (and .def_38 .def_309))
(define-fun .def_314 () Bool (and .def_310 .def_313))
(define-fun .def_315 () Bool (and .def_134 .def_314))
(define-fun .def_316 () Bool (and .def_96 .def_315))
(define-fun .def_320 () Bool (and .def_316 .def_319))
(define-fun .def_323 () Bool (and .def_320 .def_322))
(define-fun .def_324 () Bool (and .def_111 .def_323))
(define-fun .def_325 () Bool (and .def_115 .def_324))
(define-fun .def_327 () Bool (and .def_325 .def_326))
(define-fun .def_330 () Bool (and .def_327 .def_329))
(define-fun .def_332 () Bool (and .def_330 .def_331))
(define-fun .def_333 () Bool (and .def_212 .def_332))
(define-fun .def_336 () Bool (and .def_333 .def_335))
(define-fun .def_456 () Bool (or .def_336 .def_455))
(define-fun .def_457 () Bool (and |.loc{9}| .def_456))
(define-fun .def_122 () Bool (not |.loc{8}|))
(define-fun .def_458 () Bool (and .def_122 .def_457))
(define-fun .def_260 () Bool (and .def_44 .def_162))
(define-fun .def_261 () Bool (and .def_165 .def_260))
(define-fun .def_262 () Bool (and .def_59 .def_261))
(define-fun .def_263 () Bool (and .def_68 .def_262))
(define-fun .def_70 () Bool (not |.loc{9}|))
(define-fun .def_264 () Bool (and .def_70 .def_263))
(define-fun .def_265 () Bool (and .def_174 .def_264))
(define-fun .def_267 () Bool (and .def_265 .def_266))
(define-fun .def_222 () Bool (= |.y{24}| 0))
(define-fun .def_268 () Bool (and .def_222 .def_267))
(define-fun .def_270 () Bool (and .def_268 .def_269))
(define-fun .def_186 () Bool (= .def_30 |.y{28}|))
(define-fun .def_271 () Bool (and .def_186 .def_270))
(define-fun .def_272 () Bool (and .def_36 .def_271))
(define-fun .def_273 () Bool (and .def_134 .def_272))
(define-fun .def_274 () Bool (and |.loc{7}| .def_273))
(define-fun .def_275 () Bool (and |.loc{8}| .def_274))
(define-fun .def_276 () Bool (and .def_124 .def_275))
(define-fun .def_277 () Bool (and .def_205 .def_276))
(define-fun .def_459 () Bool (or .def_277 .def_458))
(define-fun .def_184 () Bool (or .def_47 .def_87))
(define-fun .def_180 () Int (+ .def_22 .def_90))
(define-fun .def_181 () Int (+ .def_14 .def_180))
(define-fun .def_182 () Bool (= .def_181 0))
(define-fun .def_169 () Bool (or .def_110 .def_168))
(define-fun .def_158 () Int (+ .def_22 .def_157))
(define-fun .def_159 () Int (+ .def_8 .def_158))
(define-fun .def_160 () Bool (= .def_159 0))
(define-fun .def_164 () Bool (and .def_160 .def_163))
(define-fun .def_166 () Bool (and .def_164 .def_165))
(define-fun .def_170 () Bool (and .def_166 .def_169))
(define-fun .def_171 () Bool (and .def_59 .def_170))
(define-fun .def_172 () Bool (and .def_68 .def_171))
(define-fun .def_173 () Bool (and .def_70 .def_172))
(define-fun .def_175 () Bool (and .def_173 .def_174))
(define-fun .def_183 () Bool (and .def_175 .def_182))
(define-fun .def_185 () Bool (and .def_183 .def_184))
(define-fun .def_187 () Bool (and .def_185 .def_186))
(define-fun .def_246 () Bool (and .def_34 .def_187))
(define-fun .def_247 () Bool (and .def_36 .def_246))
(define-fun .def_248 () Bool (and .def_111 .def_247))
(define-fun .def_249 () Bool (and .def_115 .def_248))
(define-fun .def_192 () Int (* (- 1) |.y{24}|))
(define-fun .def_193 () Int (+ .def_22 .def_192))
(define-fun .def_194 () Bool (= .def_193 (- 1)))
(define-fun .def_250 () Bool (and .def_194 .def_249))
(define-fun .def_197 () (Array Int Int) (store .def_28 |.x{271}| .def_196))
(define-fun .def_198 () Bool (= |.y{27}| .def_197))
(define-fun .def_251 () Bool (and .def_198 .def_250))
(define-fun .def_252 () Bool (and |.loc{7}| .def_251))
(define-fun .def_200 () Int (select .def_28 |.x{269}|))
(define-fun .def_201 () (Array Int Int) (store .def_24 |.x{270}| .def_200))
(define-fun .def_202 () Bool (= |.y{25}| .def_201))
(define-fun .def_253 () Bool (and .def_202 .def_252))
(define-fun .def_254 () Bool (and |.loc{8}| .def_253))
(define-fun .def_206 () Bool (not .def_205))
(define-fun .def_255 () Bool (and .def_206 .def_254))
(define-fun .def_208 () Int (+ .def_22 .def_76))
(define-fun .def_209 () Int (+ .def_8 .def_208))
(define-fun .def_210 () Bool (= .def_209 0))
(define-fun .def_256 () Bool (and .def_210 .def_255))
(define-fun .def_257 () Bool (and .def_124 .def_256))
(define-fun .def_216 () Int (+ .def_22 .def_81))
(define-fun .def_217 () Int (+ .def_14 .def_216))
(define-fun .def_218 () Bool (= .def_217 0))
(define-fun .def_258 () Bool (and .def_218 .def_257))
(define-fun .def_128 () Bool (or .def_47 .def_127))
(define-fun .def_259 () Bool (and .def_128 .def_258))
(define-fun .def_460 () Bool (or .def_259 .def_459))
(define-fun .def_26 () Int (! |.y{16}| :next |.y{26}|))
(define-fun .def_244 () Bool (= .def_26 |.y{28}|))
(define-fun .def_242 () Bool (= |.y{23}| .def_24))
(define-fun .def_240 () Bool (= |.y{22}| .def_22))
(define-fun .def_237 () Bool (= |.y{20}| .def_18))
(define-fun .def_16 () (Array Int Int) (! |.y{14}| :next |.y{21}|))
(define-fun .def_235 () Bool (= |.y{19}| .def_16))
(define-fun .def_232 () Bool (= |.y{18}| .def_14))
(define-fun .def_229 () Bool (= .def_12 |.y{25}|))
(define-fun .def_227 () Bool (= .def_20 |.y{27}|))
(define-fun .def_221 () Bool (and .def_44 .def_70))
(define-fun .def_223 () Bool (and .def_221 .def_222))
(define-fun .def_224 () Bool (and .def_34 .def_223))
(define-fun .def_225 () Bool (and .def_96 .def_224))
(define-fun .def_226 () Bool (and |.loc{8}| .def_225))
(define-fun .def_228 () Bool (and .def_226 .def_227))
(define-fun .def_230 () Bool (and .def_228 .def_229))
(define-fun .def_65 () Bool (<= .def_26 .def_10))
(define-fun .def_231 () Bool (and .def_65 .def_230))
(define-fun .def_233 () Bool (and .def_231 .def_232))
(define-fun .def_234 () Bool (and .def_212 .def_233))
(define-fun .def_236 () Bool (and .def_234 .def_235))
(define-fun .def_238 () Bool (and .def_236 .def_237))
(define-fun .def_239 () Bool (and .def_124 .def_238))
(define-fun .def_241 () Bool (and .def_239 .def_240))
(define-fun .def_243 () Bool (and .def_241 .def_242))
(define-fun .def_245 () Bool (and .def_243 .def_244))
(define-fun .def_461 () Bool (or .def_245 .def_460))
(define-fun .def_188 () Bool (and .def_36 .def_187))
(define-fun .def_189 () Bool (and .def_134 .def_188))
(define-fun .def_190 () Bool (and .def_111 .def_189))
(define-fun .def_191 () Bool (and .def_115 .def_190))
(define-fun .def_195 () Bool (and .def_191 .def_194))
(define-fun .def_199 () Bool (and .def_195 .def_198))
(define-fun .def_203 () Bool (and .def_199 .def_202))
(define-fun .def_204 () Bool (and |.loc{8}| .def_203))
(define-fun .def_207 () Bool (and .def_204 .def_206))
(define-fun .def_211 () Bool (and .def_207 .def_210))
(define-fun .def_213 () Bool (and .def_211 .def_212))
(define-fun .def_214 () Bool (and .def_124 .def_213))
(define-fun .def_219 () Bool (and .def_214 .def_218))
(define-fun .def_220 () Bool (and .def_128 .def_219))
(define-fun .def_462 () Bool (or .def_220 .def_461))
(define-fun .def_151 () Bool (<= |.y{24}| 0))
(define-fun .def_152 () Bool (not .def_151))
(define-fun .def_148 () Bool (<= |.y{20}| 0))
(define-fun .def_149 () Bool (not .def_148))
(define-fun .def_145 () Bool (<= |.y{22}| 0))
(define-fun .def_146 () Bool (not .def_145))
(define-fun .def_142 () Bool (<= |.y{26}| 0))
(define-fun .def_143 () Bool (not .def_142))
(define-fun .def_139 () Bool (<= |.y{17}| 0))
(define-fun .def_140 () Bool (not .def_139))
(define-fun .def_137 () Bool (= |.y{18}| 0))
(define-fun .def_135 () Bool (and .def_70 .def_134))
(define-fun .def_136 () Bool (and .def_96 .def_135))
(define-fun .def_138 () Bool (and .def_136 .def_137))
(define-fun .def_141 () Bool (and .def_138 .def_140))
(define-fun .def_144 () Bool (and .def_141 .def_143))
(define-fun .def_147 () Bool (and .def_144 .def_146))
(define-fun .def_150 () Bool (and .def_147 .def_149))
(define-fun .def_153 () Bool (and .def_150 .def_152))
(define-fun .def_154 () Bool (and |.loc{7}| .def_153))
(define-fun .def_155 () Bool (and .def_122 .def_154))
(define-fun .def_156 () Bool (and .def_124 .def_155))
(define-fun .def_463 () Bool (or .def_156 .def_462))
(define-fun .def_130 () Int (* (- 1) |.y{18}|))
(define-fun .def_131 () Int (+ .def_10 .def_130))
(define-fun .def_132 () Bool (= .def_131 (- 1)))
(define-fun .def_120 () Bool (= .def_26 |.y{26}|))
(define-fun .def_117 () Bool (= .def_22 |.y{24}|))
(define-fun .def_103 () Bool (<= .def_22 0))
(define-fun .def_113 () Bool (not .def_103))
(define-fun .def_106 () Bool (or .def_103 .def_105))
(define-fun .def_99 () Int (+ .def_22 .def_98))
(define-fun .def_100 () Int (+ .def_10 .def_99))
(define-fun .def_101 () Bool (= .def_100 0))
(define-fun .def_91 () Int (+ .def_18 .def_90))
(define-fun .def_92 () Int (+ .def_10 .def_91))
(define-fun .def_93 () Bool (= .def_92 0))
(define-fun .def_82 () Int (+ .def_14 .def_81))
(define-fun .def_83 () Int (+ .def_10 .def_82))
(define-fun .def_84 () Bool (= .def_83 0))
(define-fun .def_77 () Int (+ .def_10 .def_76))
(define-fun .def_78 () Int (+ .def_8 .def_77))
(define-fun .def_79 () Bool (= .def_78 0))
(define-fun .def_66 () Bool (not .def_65))
(define-fun .def_62 () (Array Int Int) (store .def_12 |.x{266}| |.x{270}|))
(define-fun .def_63 () Bool (= |.y{19}| .def_62))
(define-fun .def_56 () (Array Int Int) (store .def_16 |.x{269}| |.x{270}|))
(define-fun .def_57 () Bool (= |.y{21}| .def_56))
(define-fun .def_51 () (Array Int Int) (store .def_20 |.x{271}| |.x{278}|))
(define-fun .def_52 () Bool (= |.y{23}| .def_51))
(define-fun .def_42 () (Array Int Int) (store .def_24 |.x{274}| |.x{278}|))
(define-fun .def_43 () Bool (= |.y{25}| .def_42))
(define-fun .def_45 () Bool (and .def_43 .def_44))
(define-fun .def_49 () Bool (and .def_45 .def_48))
(define-fun .def_53 () Bool (and .def_49 .def_52))
(define-fun .def_58 () Bool (and .def_53 .def_57))
(define-fun .def_60 () Bool (and .def_58 .def_59))
(define-fun .def_64 () Bool (and .def_60 .def_63))
(define-fun .def_67 () Bool (and .def_64 .def_66))
(define-fun .def_69 () Bool (and .def_67 .def_68))
(define-fun .def_71 () Bool (and .def_69 .def_70))
(define-fun .def_74 () Bool (and .def_71 .def_73))
(define-fun .def_80 () Bool (and .def_74 .def_79))
(define-fun .def_85 () Bool (and .def_80 .def_84))
(define-fun .def_89 () Bool (and .def_85 .def_88))
(define-fun .def_94 () Bool (and .def_89 .def_93))
(define-fun .def_95 () Bool (and .def_34 .def_94))
(define-fun .def_97 () Bool (and .def_95 .def_96))
(define-fun .def_102 () Bool (and .def_97 .def_101))
(define-fun .def_107 () Bool (and .def_102 .def_106))
(define-fun .def_112 () Bool (and .def_107 .def_111))
(define-fun .def_114 () Bool (and .def_112 .def_113))
(define-fun .def_116 () Bool (and .def_114 .def_115))
(define-fun .def_118 () Bool (and .def_116 .def_117))
(define-fun .def_119 () Bool (and |.loc{7}| .def_118))
(define-fun .def_121 () Bool (and .def_119 .def_120))
(define-fun .def_123 () Bool (and .def_121 .def_122))
(define-fun .def_125 () Bool (and .def_123 .def_124))
(define-fun .def_129 () Bool (and .def_125 .def_128))
(define-fun .def_133 () Bool (and .def_129 .def_132))
(define-fun .def_464 () Bool (! (or .def_133 .def_463) :trans true))
(define-fun .def_467 () Bool (and .def_34 .def_96))
(define-fun .def_468 () Bool (and .def_38 .def_467))
(define-fun .def_469 () Bool (! (not .def_468) :invar-property 0))
(assert true)
